\ENCODING=ISO-8859-1
\Problem name: ilog.cplex

Minimize
 obj1: 109503 x1 + 100538 x2 + 90427 x3 + 97551 x4 + 96893 x5 + 93450 x6
       + 102546 x7 + 90730 x8 + 104907 x9 + 96218 x10 + 103150 x11 + 91276 x12
       + 90848 x13 + 90549 x14 + 107980 x15 + 103780 x16 + 95883 x17
       + 108886 x18 + 106537 x19 + 107000 x20 + 101831 x21 + 106857 x22
       + 92574 x23 + 99693 x24 + 94914 x25 + 102458 x26 + 102482 x27
       + 100360 x28 + 105433 x29 + 95855 x30 + 97312 x31 + 94520 x32
       + 92326 x33 + 95763 x34 + 99530 x35 + 102962 x36 + 97230 x37 + 91014 x38
       + 96554 x39 + 94921 x40 + 103935 x41 + 99256 x42 + 109693 x43
       + 91240 x44 + 105995 x45 + 98609 x46 + 99330 x47 + 94310 x48
       + 107815 x49 + 102703 x50 + 95023 x51 + 103959 x52 + 102635 x53
       + 94660 x54 + 102628 x55 + 91427 x56 + 104642 x57 + 91400 x58
       + 109673 x59 + 107196 x60 + 92675 x61 + 101065 x62 + 93527 x63
       + 108113 x64 + 90607 x65 + 98152 x66 + 101139 x67 + 92868 x68
       + 104541 x69 + 100562 x70 + 106198 x71 + 95233 x72 + 103842 x73
       + 104143 x74 + 99232 x75 + 100170 x76 + 107442 x77 + 91228 x78
       + 92799 x79 + 99021 x80 + 106898 x81 + 101430 x82 + 95170 x83
       + 100500 x84 + 107309 x85 + 104953 x86 + 109174 x87 + 91528 x88
       + 93269 x89 + 102698 x90 + 97937 x91 + 103990 x92 + 106249 x93
       + 107435 x94 + 101257 x95 + 108810 x96 + 109700 x97 + 105968 x98
       + 109068 x99 + 109708 x100 + 98605 x101 + 103500 x102 + 101713 x103
       + 105570 x104 + 101387 x105 + 108282 x106 + 90706 x107 + 92595 x108
       + 103749 x109 + 107156 x110 + 98178 x111 + 105181 x112 + 96447 x113
       + 90749 x114 + 98415 x115 + 108008 x116 + 91934 x117 + 90851 x118
       + 90662 x119 + 90812 x120 + 102100 x121 + 104523 x122 + 93394 x123
       + 100711 x124 + 108348 x125 + 101042 x126 + 91200 x127 + 97192 x128
       + 101208 x129 + 94947 x130 + 90967 x131 + 99885 x132 + 96811 x133
       + 102930 x134 + 90032 x135 + 104956 x136 + 98481 x137 + 101691 x138
       + 100709 x139 + 90153 x140 + 106989 x141 + 107959 x142 + 101486 x143
       + 102357 x144 + 100938 x145 + 109659 x146 + 91310 x147 + 93765 x148
       + 93969 x149 + 98220 x150 + 106526 x151 + 96206 x152 + 105150 x153
       + 101233 x154 + 100065 x155 + 95185 x156 + 94280 x157 + 94545 x158
       + 98126 x159 + 97881 x160 + 94770 x161 + 103363 x162 + 100858 x163
       + 102669 x164 + 103355 x165 + 103044 x166 + 100441 x167 + 91626 x168
       + 98102 x169 + 102006 x170 + 92507 x171 + 102055 x172 + 94003 x173
       + 91533 x174 + 94944 x175 + 108231 x176 + 108904 x177 + 100254 x178
       + 101944 x179 + 100357 x180 + 104178 x181 + 98651 x182 + 101469 x183
       + 101666 x184 + 101722 x185 + 106729 x186 + 91748 x187 + 99338 x188
       + 91316 x189 + 93437 x190 + 103755 x191 + 105926 x192 + 103350 x193
       + 90887 x194 + 105592 x195 + 105785 x196 + 107157 x197 + 93736 x198
       + 97107 x199 + 95097 x200 + 103941 x201 + 106092 x202 + 97028 x203
       + 99889 x204 + 100873 x205 + 100213 x206 + 99543 x207 + 102687 x208
       + 102248 x209 + 103974 x210 + 93113 x211 + 92701 x212 + 95052 x213
       + 93805 x214 + 93565 x215 + 104435 x216 + 108317 x217 + 95122 x218
       + 93337 x219 + 95287 x220 + 108320 x221 + 103248 x222 + 109278 x223
       + 93957 x224 + 95000 x225 + 94361 x226 + 102496 x227 + 108374 x228
       + 108876 x229 + 98284 x230 + 105476 x231 + 94387 x232 + 102297 x233
       + 92676 x234 + 104087 x235 + 94596 x236 + 94051 x237 + 91729 x238
       + 105045 x239 + 100469 x240 + 90299 x241 + 95937 x242 + 98615 x243
       + 105999 x244 + 90552 x245 + 96126 x246 + 99931 x247 + 91664 x248
       + 98837 x249 + 98191 x250 + 105604 x251 + 94482 x252 + 92943 x253
       + 103931 x254 + 100992 x255 + 97505 x256 + 92345 x257 + 94071 x258
       + 108882 x259 + 91058 x260 + 96065 x261 + 104748 x262 + 96963 x263
       + 97154 x264 + 93906 x265 + 100800 x266 + 103734 x267 + 106627 x268
       + 96890 x269 + 99559 x270 + 90150 x271 + 104627 x272 + 97090 x273
       + 90321 x274 + 94004 x275 + 109284 x276 + 107071 x277 + 106670 x278
       + 99407 x279 + 108270 x280 + 104815 x281 + 101534 x282 + 94636 x283
       + 108458 x284 + 101258 x285 + 108156 x286 + 98243 x287 + 94966 x288
       + 94471 x289 + 104077 x290 + 105515 x291 + 107657 x292 + 97029 x293
       + 109766 x294 + 105186 x295 + 105493 x296 + 101269 x297 + 108753 x298
       + 99794 x299 + 149172 x300 + 20254 x301 + 18461 x302 + 19148 x303
       + 19746 x304 + 18001 x305 + 19643 x306 + 20794 x307 + 20440 x308
       + 20780 x309 + 20399 x310 + 21585 x311 + 21937 x312 + 21497 x313
       + 21147 x314 + 20959 x315 + 19082 x316 + 18812 x317 + 20339 x318
       + 19697 x319 + 21922 x320 + 21126 x321 + 19515 x322 + 19217 x323
       + 19314 x324 + 20285 x325 + 20149 x326 + 19845 x327 + 19357 x328
       + 19894 x329 + 19770 x330 + 21361 x331 + 21272 x332 + 19534 x333
       + 19980 x334 + 21227 x335 + 20697 x336 + 20995 x337 + 21502 x338
       + 20371 x339 + 21029 x340 + 19753 x341 + 21254 x342 + 19236 x343
       + 21520 x344 + 18477 x345 + 19710 x346 + 18050 x347 + 18294 x348
       + 21281 x349 + 21440 x350 + 20846 x351 + 19233 x352 + 21674 x353
       + 19707 x354 + 18754 x355 + 21902 x356 + 19868 x357 + 21411 x358
       + 18421 x359 + 8086 x360
Subject To
 c1:   x1 - x4 + x7 - x11 + x16 - x31 - x33 + x40 + x41 + x55 - x56  = 0
 c2:   x61 - x64 + x67 - x71 + x76 - x91 - x93 + x100 + x101 + x115 - x116  = 0
 c3:   x121 - x124 + x127 - x131 + x136 - x151 - x153 + x160 + x161 + x175
       - x176  = 1
 c4:   x181 - x184 + x187 - x191 + x196 - x211 - x213 + x220 + x221 + x235
       - x236  = -1
 c5:   x241 - x244 + x247 - x251 + x256 - x271 - x273 + x280 + x281 + x295
       - x296  = 0
 c6:   x3 + x4 + x6 - x13 - x16 + x17 + x19 - x21 - x25 + x38 + x42 - x50 + x52
        = 0
 c7:   x63 + x64 + x66 - x73 - x76 + x77 + x79 - x81 - x85 + x98 + x102 - x110
       + x112  = 0
 c8:   x123 + x124 + x126 - x133 - x136 + x137 + x139 - x141 - x145 + x158
       + x162 - x170 + x172  = 0
 c9:   x183 + x184 + x186 - x193 - x196 + x197 + x199 - x201 - x205 + x218
       + x222 - x230 + x232  = 0
 c10:  x243 + x244 + x246 - x253 - x256 + x257 + x259 - x261 - x265 + x278
       + x282 - x290 + x292  = -1
 c11:  - x3 + x5 - x9 + x21 - x27 - x35 - x37 - x46 + x47 + x49 + x54 - x55
       - x57  = 0
 c12:  - x63 + x65 - x69 + x81 - x87 - x95 - x97 - x106 + x107 + x109 + x114
       - x115 - x117  = 0
 c13:  - x123 + x125 - x129 + x141 - x147 - x155 - x157 - x166 + x167 + x169
       + x174 - x175 - x177  = 0
 c14:  - x183 + x185 - x189 + x201 - x207 - x215 - x217 - x226 + x227 + x229
       + x234 - x235 - x237  = 1
 c15:  - x243 + x245 - x249 + x261 - x267 - x275 - x277 - x286 + x287 + x289
       + x294 - x295 - x297  = 0
 c16:  - x5 + x10 - x17 + x22 + x25 + x28 - x30 + x32 + x33 - x34 + x35 + x36
       - x39 + x48 - x60  = 1
 c17:  - x65 + x70 - x77 + x82 + x85 + x88 - x90 + x92 + x93 - x94 + x95 + x96
       - x99 + x108 - x120  = 0
 c18:  - x125 + x130 - x137 + x142 + x145 + x148 - x150 + x152 + x153 - x154
       + x155 + x156 - x159 + x168 - x180  = 0
 c19:  - x185 + x190 - x197 + x202 + x205 + x208 - x210 + x212 + x213 - x214
       + x215 + x216 - x219 + x228 - x240  = 0
 c20:  - x245 + x250 - x257 + x262 + x265 + x268 - x270 + x272 + x273 - x274
       + x275 + x276 - x279 + x288 - x300  = 0
 c21:  - x1 + x2 + x11 - x12 - x15 - x19 + x26 - x28 + x34 - x43 + x44 + x46
       - x49 + x58 - x59  = 0
 c22:  - x61 + x62 + x71 - x72 - x75 - x79 + x86 - x88 + x94 - x103 + x104
       + x106 - x109 + x118 - x119  = 0
 c23:  - x121 + x122 + x131 - x132 - x135 - x139 + x146 - x148 + x154 - x163
       + x164 + x166 - x169 + x178 - x179  = -1
 c24:  - x181 + x182 + x191 - x192 - x195 - x199 + x206 - x208 + x214 - x223
       + x224 + x226 - x229 + x238 - x239  = 0
 c25:  - x241 + x242 + x251 - x252 - x255 - x259 + x266 - x268 + x274 - x283
       + x284 + x286 - x289 + x298 - x299  = 0
 c26:  x15 - x26 - x36 - x38 + x51 + x53 + x57 + x60  = 0
 c27:  x75 - x86 - x96 - x98 + x111 + x113 + x117 + x120  = 0
 c28:  x135 - x146 - x156 - x158 + x171 + x173 + x177 + x180  = 0
 c29:  x195 - x206 - x216 - x218 + x231 + x233 + x237 + x240  = 0
 c30:  x255 - x266 - x276 - x278 + x291 + x293 + x297 + x300  = 1
 c31:  - x2 + x18 - x20 + x24 + x37 + x39 - x40 + x43 - x47 - x48 - x52 - x53
       + x56  = 0
 c32:  - x62 + x78 - x80 + x84 + x97 + x99 - x100 + x103 - x107 - x108 - x112
       - x113 + x116  = 0
 c33:  - x122 + x138 - x140 + x144 + x157 + x159 - x160 + x163 - x167 - x168
       - x172 - x173 + x176  = 0
 c34:  - x182 + x198 - x200 + x204 + x217 + x219 - x220 + x223 - x227 - x228
       - x232 - x233 + x236  = 0
 c35:  - x242 + x258 - x260 + x264 + x277 + x279 - x280 + x283 - x287 - x288
       - x292 - x293 + x296  = 0
 c36:  x9 - x10 - x14 + x20 + x23 - x24 + x29 - x41 - x45 + x50  = -1
 c37:  x69 - x70 - x74 + x80 + x83 - x84 + x89 - x101 - x105 + x110  = -1
 c38:  x129 - x130 - x134 + x140 + x143 - x144 + x149 - x161 - x165 + x170  = 0
 c39:  x189 - x190 - x194 + x200 + x203 - x204 + x209 - x221 - x225 + x230  = 0
 c40:  x249 - x250 - x254 + x260 + x263 - x264 + x269 - x281 - x285 + x290  = 0
 c41:  - x7 + x8 + x14 - x18 - x22 + x27 - x29 + x31 - x42 - x44 - x54 + x59
        = 0
 c42:  - x67 + x68 + x74 - x78 - x82 + x87 - x89 + x91 - x102 - x104 - x114
       + x119  = 1
 c43:  - x127 + x128 + x134 - x138 - x142 + x147 - x149 + x151 - x162 - x164
       - x174 + x179  = 0
 c44:  - x187 + x188 + x194 - x198 - x202 + x207 - x209 + x211 - x222 - x224
       - x234 + x239  = 0
 c45:  - x247 + x248 + x254 - x258 - x262 + x267 - x269 + x271 - x282 - x284
       - x294 + x299  = 0
 c46:  - x6 - x8 + x12 + x13 - x23 + x30 - x32 + x45 - x51 - x58  = 0
 c47:  - x66 - x68 + x72 + x73 - x83 + x90 - x92 + x105 - x111 - x118  = 0
 c48:  - x126 - x128 + x132 + x133 - x143 + x150 - x152 + x165 - x171 - x178
        = 0
 c49:  - x186 - x188 + x192 + x193 - x203 + x210 - x212 + x225 - x231 - x238
        = 0
 c50:  - x246 - x248 + x252 + x253 - x263 + x270 - x272 + x285 - x291 - x298
        = 0
 c51:  4 x1 + 4 x61 + 4 x121 + 4 x181 + 4 x241 - 2 x301 <= 0
 c52:  4 x2 + 4 x62 + 4 x122 + 4 x182 + 4 x242 - 2 x302 <= 0
 c53:  4 x3 + 4 x63 + 4 x123 + 4 x183 + 4 x243 - 2 x303 <= 0
 c54:  4 x4 + 4 x64 + 4 x124 + 4 x184 + 4 x244 - 2 x304 <= 0
 c55:  4 x5 + 4 x65 + 4 x125 + 4 x185 + 4 x245 - 2 x305 <= 0
 c56:  4 x6 + 4 x66 + 4 x126 + 4 x186 + 4 x246 - 2 x306 <= 0
 c57:  4 x7 + 4 x67 + 4 x127 + 4 x187 + 4 x247 - 2 x307 <= 0
 c58:  4 x8 + 4 x68 + 4 x128 + 4 x188 + 4 x248 - 2 x308 <= 0
 c59:  4 x9 + 4 x69 + 4 x129 + 4 x189 + 4 x249 - 2 x309 <= 0
 c60:  4 x10 + 4 x70 + 4 x130 + 4 x190 + 4 x250 - 2 x310 <= 0
 c61:  4 x11 + 4 x71 + 4 x131 + 4 x191 + 4 x251 - 2 x311 <= 0
 c62:  4 x12 + 4 x72 + 4 x132 + 4 x192 + 4 x252 - 2 x312 <= 0
 c63:  4 x13 + 4 x73 + 4 x133 + 4 x193 + 4 x253 - 2 x313 <= 0
 c64:  4 x14 + 4 x74 + 4 x134 + 4 x194 + 4 x254 - 2 x314 <= 0
 c65:  4 x15 + 4 x75 + 4 x135 + 4 x195 + 4 x255 - 2 x315 <= 0
 c66:  4 x16 + 4 x76 + 4 x136 + 4 x196 + 4 x256 - 2 x316 <= 0
 c67:  4 x17 + 4 x77 + 4 x137 + 4 x197 + 4 x257 - 2 x317 <= 0
 c68:  4 x18 + 4 x78 + 4 x138 + 4 x198 + 4 x258 - 2 x318 <= 0
 c69:  4 x19 + 4 x79 + 4 x139 + 4 x199 + 4 x259 - 2 x319 <= 0
 c70:  4 x20 + 4 x80 + 4 x140 + 4 x200 + 4 x260 - 2 x320 <= 0
 c71:  4 x21 + 4 x81 + 4 x141 + 4 x201 + 4 x261 - 2 x321 <= 0
 c72:  4 x22 + 4 x82 + 4 x142 + 4 x202 + 4 x262 - 2 x322 <= 0
 c73:  4 x23 + 4 x83 + 4 x143 + 4 x203 + 4 x263 - 2 x323 <= 0
 c74:  4 x24 + 4 x84 + 4 x144 + 4 x204 + 4 x264 - 2 x324 <= 0
 c75:  4 x25 + 4 x85 + 4 x145 + 4 x205 + 4 x265 - 2 x325 <= 0
 c76:  4 x26 + 4 x86 + 4 x146 + 4 x206 + 4 x266 - 2 x326 <= 0
 c77:  4 x27 + 4 x87 + 4 x147 + 4 x207 + 4 x267 - 2 x327 <= 0
 c78:  4 x28 + 4 x88 + 4 x148 + 4 x208 + 4 x268 - 2 x328 <= 0
 c79:  4 x29 + 4 x89 + 4 x149 + 4 x209 + 4 x269 - 2 x329 <= 0
 c80:  4 x30 + 4 x90 + 4 x150 + 4 x210 + 4 x270 - 2 x330 <= 0
 c81:  4 x31 + 4 x91 + 4 x151 + 4 x211 + 4 x271 - 2 x331 <= 0
 c82:  4 x32 + 4 x92 + 4 x152 + 4 x212 + 4 x272 - 2 x332 <= 0
 c83:  4 x33 + 4 x93 + 4 x153 + 4 x213 + 4 x273 - 2 x333 <= 0
 c84:  4 x34 + 4 x94 + 4 x154 + 4 x214 + 4 x274 - 2 x334 <= 0
 c85:  4 x35 + 4 x95 + 4 x155 + 4 x215 + 4 x275 - 2 x335 <= 0
 c86:  4 x36 + 4 x96 + 4 x156 + 4 x216 + 4 x276 - 2 x336 <= 0
 c87:  4 x37 + 4 x97 + 4 x157 + 4 x217 + 4 x277 - 2 x337 <= 0
 c88:  4 x38 + 4 x98 + 4 x158 + 4 x218 + 4 x278 - 2 x338 <= 0
 c89:  4 x39 + 4 x99 + 4 x159 + 4 x219 + 4 x279 - 2 x339 <= 0
 c90:  4 x40 + 4 x100 + 4 x160 + 4 x220 + 4 x280 - 2 x340 <= 0
 c91:  4 x41 + 4 x101 + 4 x161 + 4 x221 + 4 x281 - 2 x341 <= 0
 c92:  4 x42 + 4 x102 + 4 x162 + 4 x222 + 4 x282 - 2 x342 <= 0
 c93:  4 x43 + 4 x103 + 4 x163 + 4 x223 + 4 x283 - 2 x343 <= 0
 c94:  4 x44 + 4 x104 + 4 x164 + 4 x224 + 4 x284 - 2 x344 <= 0
 c95:  4 x45 + 4 x105 + 4 x165 + 4 x225 + 4 x285 - 2 x345 <= 0
 c96:  4 x46 + 4 x106 + 4 x166 + 4 x226 + 4 x286 - 2 x346 <= 0
 c97:  4 x47 + 4 x107 + 4 x167 + 4 x227 + 4 x287 - 2 x347 <= 0
 c98:  4 x48 + 4 x108 + 4 x168 + 4 x228 + 4 x288 - 2 x348 <= 0
 c99:  4 x49 + 4 x109 + 4 x169 + 4 x229 + 4 x289 - 2 x349 <= 0
 c100: 4 x50 + 4 x110 + 4 x170 + 4 x230 + 4 x290 - 2 x350 <= 0
 c101: 4 x51 + 4 x111 + 4 x171 + 4 x231 + 4 x291 - 2 x351 <= 0
 c102: 4 x52 + 4 x112 + 4 x172 + 4 x232 + 4 x292 - 2 x352 <= 0
 c103: 4 x53 + 4 x113 + 4 x173 + 4 x233 + 4 x293 - 2 x353 <= 0
 c104: 4 x54 + 4 x114 + 4 x174 + 4 x234 + 4 x294 - 2 x354 <= 0
 c105: 4 x55 + 4 x115 + 4 x175 + 4 x235 + 4 x295 - 2 x355 <= 0
 c106: 4 x56 + 4 x116 + 4 x176 + 4 x236 + 4 x296 - 2 x356 <= 0
 c107: 4 x57 + 4 x117 + 4 x177 + 4 x237 + 4 x297 - 2 x357 <= 0
 c108: 4 x58 + 4 x118 + 4 x178 + 4 x238 + 4 x298 - 2 x358 <= 0
 c109: 4 x59 + 4 x119 + 4 x179 + 4 x239 + 4 x299 - 2 x359 <= 0
 c110: 4 x60 + 4 x120 + 4 x180 + 4 x240 + 4 x300 - 2 x360 <= 0
Bounds
 0 <= x1 <= 1
 0 <= x2 <= 1
 0 <= x3 <= 1
 0 <= x4 <= 1
 0 <= x5 <= 1
 0 <= x6 <= 1
 0 <= x7 <= 1
 0 <= x8 <= 1
 0 <= x9 <= 1
 0 <= x10 <= 1
 0 <= x11 <= 1
 0 <= x12 <= 1
 0 <= x13 <= 1
 0 <= x14 <= 1
 0 <= x15 <= 1
 0 <= x16 <= 1
 0 <= x17 <= 1
 0 <= x18 <= 1
 0 <= x19 <= 1
 0 <= x20 <= 1
 0 <= x21 <= 1
 0 <= x22 <= 1
 0 <= x23 <= 1
 0 <= x24 <= 1
 0 <= x25 <= 1
 0 <= x26 <= 1
 0 <= x27 <= 1
 0 <= x28 <= 1
 0 <= x29 <= 1
 0 <= x30 <= 1
 0 <= x31 <= 1
 0 <= x32 <= 1
 0 <= x33 <= 1
 0 <= x34 <= 1
 0 <= x35 <= 1
 0 <= x36 <= 1
 0 <= x37 <= 1
 0 <= x38 <= 1
 0 <= x39 <= 1
 0 <= x40 <= 1
 0 <= x41 <= 1
 0 <= x42 <= 1
 0 <= x43 <= 1
 0 <= x44 <= 1
 0 <= x45 <= 1
 0 <= x46 <= 1
 0 <= x47 <= 1
 0 <= x48 <= 1
 0 <= x49 <= 1
 0 <= x50 <= 1
 0 <= x51 <= 1
 0 <= x52 <= 1
 0 <= x53 <= 1
 0 <= x54 <= 1
 0 <= x55 <= 1
 0 <= x56 <= 1
 0 <= x57 <= 1
 0 <= x58 <= 1
 0 <= x59 <= 1
 0 <= x60 <= 1
 0 <= x61 <= 1
 0 <= x62 <= 1
 0 <= x63 <= 1
 0 <= x64 <= 1
 0 <= x65 <= 1
 0 <= x66 <= 1
 0 <= x67 <= 1
 0 <= x68 <= 1
 0 <= x69 <= 1
 0 <= x70 <= 1
 0 <= x71 <= 1
 0 <= x72 <= 1
 0 <= x73 <= 1
 0 <= x74 <= 1
 0 <= x75 <= 1
 0 <= x76 <= 1
 0 <= x77 <= 1
 0 <= x78 <= 1
 0 <= x79 <= 1
 0 <= x80 <= 1
 0 <= x81 <= 1
 0 <= x82 <= 1
 0 <= x83 <= 1
 0 <= x84 <= 1
 0 <= x85 <= 1
 0 <= x86 <= 1
 0 <= x87 <= 1
 0 <= x88 <= 1
 0 <= x89 <= 1
 0 <= x90 <= 1
 0 <= x91 <= 1
 0 <= x92 <= 1
 0 <= x93 <= 1
 0 <= x94 <= 1
 0 <= x95 <= 1
 0 <= x96 <= 1
 0 <= x97 <= 1
 0 <= x98 <= 1
 0 <= x99 <= 1
 0 <= x100 <= 1
 0 <= x101 <= 1
 0 <= x102 <= 1
 0 <= x103 <= 1
 0 <= x104 <= 1
 0 <= x105 <= 1
 0 <= x106 <= 1
 0 <= x107 <= 1
 0 <= x108 <= 1
 0 <= x109 <= 1
 0 <= x110 <= 1
 0 <= x111 <= 1
 0 <= x112 <= 1
 0 <= x113 <= 1
 0 <= x114 <= 1
 0 <= x115 <= 1
 0 <= x116 <= 1
 0 <= x117 <= 1
 0 <= x118 <= 1
 0 <= x119 <= 1
 0 <= x120 <= 1
 0 <= x121 <= 1
 0 <= x122 <= 1
 0 <= x123 <= 1
 0 <= x124 <= 1
 0 <= x125 <= 1
 0 <= x126 <= 1
 0 <= x127 <= 1
 0 <= x128 <= 1
 0 <= x129 <= 1
 0 <= x130 <= 1
 0 <= x131 <= 1
 0 <= x132 <= 1
 0 <= x133 <= 1
 0 <= x134 <= 1
 0 <= x135 <= 1
 0 <= x136 <= 1
 0 <= x137 <= 1
 0 <= x138 <= 1
 0 <= x139 <= 1
 0 <= x140 <= 1
 0 <= x141 <= 1
 0 <= x142 <= 1
 0 <= x143 <= 1
 0 <= x144 <= 1
 0 <= x145 <= 1
 0 <= x146 <= 1
 0 <= x147 <= 1
 0 <= x148 <= 1
 0 <= x149 <= 1
 0 <= x150 <= 1
 0 <= x151 <= 1
 0 <= x152 <= 1
 0 <= x153 <= 1
 0 <= x154 <= 1
 0 <= x155 <= 1
 0 <= x156 <= 1
 0 <= x157 <= 1
 0 <= x158 <= 1
 0 <= x159 <= 1
 0 <= x160 <= 1
 0 <= x161 <= 1
 0 <= x162 <= 1
 0 <= x163 <= 1
 0 <= x164 <= 1
 0 <= x165 <= 1
 0 <= x166 <= 1
 0 <= x167 <= 1
 0 <= x168 <= 1
 0 <= x169 <= 1
 0 <= x170 <= 1
 0 <= x171 <= 1
 0 <= x172 <= 1
 0 <= x173 <= 1
 0 <= x174 <= 1
 0 <= x175 <= 1
 0 <= x176 <= 1
 0 <= x177 <= 1
 0 <= x178 <= 1
 0 <= x179 <= 1
 0 <= x180 <= 1
 0 <= x181 <= 1
 0 <= x182 <= 1
 0 <= x183 <= 1
 0 <= x184 <= 1
 0 <= x185 <= 1
 0 <= x186 <= 1
 0 <= x187 <= 1
 0 <= x188 <= 1
 0 <= x189 <= 1
 0 <= x190 <= 1
 0 <= x191 <= 1
 0 <= x192 <= 1
 0 <= x193 <= 1
 0 <= x194 <= 1
 0 <= x195 <= 1
 0 <= x196 <= 1
 0 <= x197 <= 1
 0 <= x198 <= 1
 0 <= x199 <= 1
 0 <= x200 <= 1
 0 <= x201 <= 1
 0 <= x202 <= 1
 0 <= x203 <= 1
 0 <= x204 <= 1
 0 <= x205 <= 1
 0 <= x206 <= 1
 0 <= x207 <= 1
 0 <= x208 <= 1
 0 <= x209 <= 1
 0 <= x210 <= 1
 0 <= x211 <= 1
 0 <= x212 <= 1
 0 <= x213 <= 1
 0 <= x214 <= 1
 0 <= x215 <= 1
 0 <= x216 <= 1
 0 <= x217 <= 1
 0 <= x218 <= 1
 0 <= x219 <= 1
 0 <= x220 <= 1
 0 <= x221 <= 1
 0 <= x222 <= 1
 0 <= x223 <= 1
 0 <= x224 <= 1
 0 <= x225 <= 1
 0 <= x226 <= 1
 0 <= x227 <= 1
 0 <= x228 <= 1
 0 <= x229 <= 1
 0 <= x230 <= 1
 0 <= x231 <= 1
 0 <= x232 <= 1
 0 <= x233 <= 1
 0 <= x234 <= 1
 0 <= x235 <= 1
 0 <= x236 <= 1
 0 <= x237 <= 1
 0 <= x238 <= 1
 0 <= x239 <= 1
 0 <= x240 <= 1
 0 <= x241 <= 1
 0 <= x242 <= 1
 0 <= x243 <= 1
 0 <= x244 <= 1
 0 <= x245 <= 1
 0 <= x246 <= 1
 0 <= x247 <= 1
 0 <= x248 <= 1
 0 <= x249 <= 1
 0 <= x250 <= 1
 0 <= x251 <= 1
 0 <= x252 <= 1
 0 <= x253 <= 1
 0 <= x254 <= 1
 0 <= x255 <= 1
 0 <= x256 <= 1
 0 <= x257 <= 1
 0 <= x258 <= 1
 0 <= x259 <= 1
 0 <= x260 <= 1
 0 <= x261 <= 1
 0 <= x262 <= 1
 0 <= x263 <= 1
 0 <= x264 <= 1
 0 <= x265 <= 1
 0 <= x266 <= 1
 0 <= x267 <= 1
 0 <= x268 <= 1
 0 <= x269 <= 1
 0 <= x270 <= 1
 0 <= x271 <= 1
 0 <= x272 <= 1
 0 <= x273 <= 1
 0 <= x274 <= 1
 0 <= x275 <= 1
 0 <= x276 <= 1
 0 <= x277 <= 1
 0 <= x278 <= 1
 0 <= x279 <= 1
 0 <= x280 <= 1
 0 <= x281 <= 1
 0 <= x282 <= 1
 0 <= x283 <= 1
 0 <= x284 <= 1
 0 <= x285 <= 1
 0 <= x286 <= 1
 0 <= x287 <= 1
 0 <= x288 <= 1
 0 <= x289 <= 1
 0 <= x290 <= 1
 0 <= x291 <= 1
 0 <= x292 <= 1
 0 <= x293 <= 1
 0 <= x294 <= 1
 0 <= x295 <= 1
 0 <= x296 <= 1
 0 <= x297 <= 1
 0 <= x298 <= 1
 0 <= x299 <= 1
 0 <= x300 <= 1
 0 <= x301 <= 1
 0 <= x302 <= 1
 0 <= x303 <= 1
 0 <= x304 <= 1
 0 <= x305 <= 1
 0 <= x306 <= 1
 0 <= x307 <= 1
 0 <= x308 <= 1
 0 <= x309 <= 1
 0 <= x310 <= 1
 0 <= x311 <= 1
 0 <= x312 <= 1
 0 <= x313 <= 1
 0 <= x314 <= 1
 0 <= x315 <= 1
 0 <= x316 <= 1
 0 <= x317 <= 1
 0 <= x318 <= 1
 0 <= x319 <= 1
 0 <= x320 <= 1
 0 <= x321 <= 1
 0 <= x322 <= 1
 0 <= x323 <= 1
 0 <= x324 <= 1
 0 <= x325 <= 1
 0 <= x326 <= 1
 0 <= x327 <= 1
 0 <= x328 <= 1
 0 <= x329 <= 1
 0 <= x330 <= 1
 0 <= x331 <= 1
 0 <= x332 <= 1
 0 <= x333 <= 1
 0 <= x334 <= 1
 0 <= x335 <= 1
 0 <= x336 <= 1
 0 <= x337 <= 1
 0 <= x338 <= 1
 0 <= x339 <= 1
 0 <= x340 <= 1
 0 <= x341 <= 1
 0 <= x342 <= 1
 0 <= x343 <= 1
 0 <= x344 <= 1
 0 <= x345 <= 1
 0 <= x346 <= 1
 0 <= x347 <= 1
 0 <= x348 <= 1
 0 <= x349 <= 1
 0 <= x350 <= 1
 0 <= x351 <= 1
 0 <= x352 <= 1
 0 <= x353 <= 1
 0 <= x354 <= 1
 0 <= x355 <= 1
 0 <= x356 <= 1
 0 <= x357 <= 1
 0 <= x358 <= 1
 0 <= x359 <= 1
 0 <= x360 <= 1
Binaries
 x301  x302  x303  x304  x305  x306  x307  x308  x309  x310  x311  x312  x313 
 x314  x315  x316  x317  x318  x319  x320  x321  x322  x323  x324  x325  x326 
 x327  x328  x329  x330  x331  x332  x333  x334  x335  x336  x337  x338  x339 
 x340  x341  x342  x343  x344  x345  x346  x347  x348  x349  x350  x351  x352 
 x353  x354  x355  x356  x357  x358  x359  x360 
End
